% demand
num_movements = 39;
loading_factor = [1450, 1000, 900, 950, 1600, 1050, 1450, 1400, 1000, 1800, 1550, 2000, 1350, 1650, 1650, 1000, 1300, 1850, 1800, 1700, 1800, 1950, 950, 1550, 1850, 1350, 900, 850, 2000, 1150, 1650, 900, 1050, 1700, 1600, 1700, 1250, 1750, 1050];
pickup_time = [0, 0, 0, 1, 1, 1, 1, 1, 2, 3, 3, 3, 3, 3, 3, 4, 4, 4, 5, 5, 5, 5, 5, 6, 7, 7, 7, 7, 7, 7, 8, 9, 9, 9, 10, 11, 11, 11, 11];
delivery_time = [2, 2, 2, 2, 2, 2, 2, 2, 5, 12, 4, 4, 4, 4, 4, 12, 5, 5, 6, 6, 7, 6, 7, 7, 9, 8, 8, 8, 11, 8, 10, 11, 11, 11, 12, 12, 12, 12, 12];

% transporter definition
total_capacity = 11000;
num_decks = 4;
capacity = [3000, 3000, 1000, 4000];

% ways out of decks
num_ways_out = 2;
paths_out = array3d(decks, ways_out, decks, [
% ways out of deck d1
2, 4, 0, 0, 3, 4, 0, 0, 

% ways out of deck d2
4, 0, 0, 0, 0, 0, 0, 0,	

% ways out of deck d3
4, 0, 0, 0, 0, 0, 0, 0,	

% ways out of deck d4
0, 0, 0, 0,	0, 0, 0, 0,	

]);

